; benchmark generated from python API
(set-info :status unknown)
(declare-fun L_0 () Real)
(declare-fun C () Real)
(declare-fun S_3 () Real)
(declare-fun A_2 () Real)
(declare-fun S_1 () Real)
(declare-fun S_2 () Real)
(declare-fun A_1 () Real)
(declare-fun A_3 () Real)
(declare-fun A_0 () Real)
(declare-fun S_0 () Real)
(assert
 (let ((?x2371 (* (/ 1.0 2.0) A_2)))
 (let ((?x2393 (* (- (/ 1.0 2.0)) A_0)))
 (let ((?x2376 (* (/ 1.0 2.0) S_0)))
 (let ((?x2355 (* (- (/ 1.0 2.0)) A_3)))
 (let ((?x2378 (* (/ 1.0 2.0) C)))
 (let ((?x2372 (* (- (/ 1.0 2.0)) S_3)))
 (let ((?x2391 (* (/ 1.0 2.0) A_1)))
 (let (($x1261 (<= (+ A_2 (* (- 1.0) A_3)) 0.0)))
 (let (($x860 (<= (+ A_0 (* (- 1.0) S_3) (* 2.0 C) (* (- 1.0) L_0)) 0.0)))
 (let (($x428 (or $x860 $x1261 (<= (+ A_1 (* (- 1.0) S_3) C (* (- 1.0) L_0)) 0.0) (<= (+ ?x2391 ?x2372 ?x2378 ?x2355 ?x2376 ?x2393 ?x2371) 0.0))))
 (let (($x1780 (<= (+ (* (- 1.0) S_3) C S_1) 0.0)))
 (let (($x4365 (or (<= (+ (* (- 1.0) A_1) A_0) 0.0) $x1780 (<= (+ A_2 (* (- 1.0) S_3) (* (- 1.0) A_1) S_1) 0.0))))
 (let ((?x875 (* (- 1.0) S_2)))
 (let ((?x2383 (* (- (/ 1.0 2.0)) C)))
 (let ((?x2367 (* (/ 1.0 2.0) S_3)))
 (let (($x1568 (<= (+ A_1 ?x875 (* (- 1.0) L_0)) 0.0)))
 (let (($x885 (<= (+ A_0 C (* (- 1.0) L_0) ?x875) 0.0)))
 (let (($x2460 (or $x885 $x1568 (not (<= (+ A_1 ?x875 S_0 (* (- 1.0) A_0)) 0.0)) (<= (+ ?x2391 ?x2367 ?x2383 ?x2355 ?x875 ?x2376 ?x2393 ?x2371) 0.0))))
 (let (($x1640 (<= (+ A_1 ?x875 S_0 (* (- 1.0) A_0)) 0.0)))
 (let (($x4300 (or $x885 $x1640 (<= (+ A_2 S_3 (* (- 1.0) A_3) ?x875 (* (- 1.0) C)) 0.0))))
 (let (($x2146 (or $x885 (<= (+ (* (- 1.0) A_2) S_3 A_1 ?x875 (* (- 1.0) C)) 0.0))))
 (and (or $x885 (<= (+ A_1 S_3 (* (- 1.0) A_3) ?x875) 0.0)) (<= (+ S_3 (* (- 2.0) C) ?x875) 0.0) $x2146 (or $x885 (<= (+ (* (- 1.0) A_2) A_1) 0.0)) $x4300 $x2460 (or $x1261 $x1780) $x4365 (or $x860 (<= (+ A_1 C (* (- 1.0) A_3)) 0.0) $x1261) $x428 (<= (+ (* (- 1.0) S_1) S_0) 0.0) (<= (+ (* (- 1.0) A_0) (* (- 1.0) C) L_0 S_1) 0.0) (<= (+ (* (- 1.0) A_0) (* (- 2.0) C) L_0 S_2) 0.0) (<= (+ (* (- 1.0) A_0) S_3 (* (- 3.0) C) L_0) 0.0) (<= (+ S_0 L_0 (* (- 1.0) A_0)) 0.0) (<= (+ S_3 (* (- 1.0) A_3) L_0) 0.0) (<= (+ (* (- 1.0) S_3) S_2) 0.0) (<= (+ (* (- 1.0) A_2) S_2 L_0) 0.0) (<= (+ (* (- 1.0) A_1) S_1 L_0) 0.0) (<= (+ (* (- 1.0) A_1) (* (- 1.0) C) S_2 L_0) 0.0) (<= (+ (* (- 1.0) A_1) S_3 (* (- 2.0) C) L_0) 0.0) (<= (+ ?x875 S_1) 0.0) (<= (+ (* (- 1.0) A_2) S_3 (* (- 1.0) C) L_0) 0.0))))))))))))))))))))))))
(check-sat)
